TCS_Benchmarks/redos_fix/corpus1_output_distinct_230_229_24_0.smt2
(set-logic QF_S)
(declare-const x String)
(assert (str.in.re x (re.inter  (re.++ (re.+ (re.union (re.range "\u{00}" "\u{09}") (re.range "\u{0b}" "\u{0c}") (re.range "\u{0e}" "\u{84}") (re.range "\u{86}" "\u{ff}")) ) (re.+ (re.range "\u{30}" "\u{39}") ))  (re.++ (re.+ (re.union (re.range "\u{00}" "\u{09}") (re.range "\u{0b}" "\u{0c}") (re.range "\u{0e}" "\u{84}") (re.range "\u{86}" "\u{ff}")) ) (re.++  (re.++  (re.++  (str.to.re "\u{53}") (re.++  (str.to.re "\u{79}") (re.++  (str.to.re "\u{6e}") (re.++  (str.to.re "\u{74}") (re.++  (str.to.re "\u{61}") (re.++  (str.to.re "\u{78}") (re.++  (str.to.re "\u{20}") (re.++  (str.to.re "\u{65}") (re.++  (str.to.re "\u{72}") (re.++  (str.to.re "\u{72}") (re.++  (str.to.re "\u{6f}") (re.++  (str.to.re "\u{72}") (re.++  (str.to.re "\u{20}") (re.++  (str.to.re "\u{61}") (re.++  (str.to.re "\u{74}") (re.++  (str.to.re "\u{20}") (re.++  (str.to.re "\u{27}") (re.++ (re.+ (re.union (re.range "\u{00}" "\u{09}") (re.range "\u{0b}" "\u{0c}") (re.range "\u{0e}" "\u{84}") (re.range "\u{86}" "\u{ff}")) ) (re.++  (str.to.re "\u{27}") (re.++  (str.to.re "\u{3b}") (re.++  (str.to.re "\u{20}") (re.++  (str.to.re "\u{65}") (re.++  (str.to.re "\u{78}") (re.++  (str.to.re "\u{70}") (re.++  (str.to.re "\u{65}") (re.++  (str.to.re "\u{63}") (re.++  (str.to.re "\u{74}") (re.++  (str.to.re "\u{65}") (re.++  (str.to.re "\u{64}") (re.++  (str.to.re "\u{20}") (re.++  (str.to.re "\u{27}") (re.++ (re.+ (re.union (re.range "\u{00}" "\u{09}") (re.range "\u{0b}" "\u{0c}") (re.range "\u{0e}" "\u{84}") (re.range "\u{86}" "\u{ff}")) )  (str.to.re "\u{27}"))))))))))))))))))))))))))))))))) (re.++  (str.to.re "\u{20}") (re.++  (str.to.re "\u{61}") (re.++  (str.to.re "\u{74}") (re.++  (str.to.re "\u{20}") (re.++  (str.to.re "\u{2f}") (re.++ (re.+ (re.union (re.range "\u{00}" "\u{09}") (re.range "\u{0b}" "\u{0c}") (re.range "\u{0e}" "\u{84}") (re.range "\u{86}" "\u{ff}")) )  (str.to.re "\u{3a}")))))))) (re.+ (re.range "\u{30}" "\u{39}") ))) )))
(check-sat)
(get-model)