TCS_Benchmarks/redos_fix/corpus1_output_distinct_230_229_24_0.txt
(.+)(\d+)
(.+)((Syntax error at \'(.+)\'; expected \'.+\') at \/.+:)(\d+)